c User generated cnf file
p cnf 7 27
5 -7 7 0 
2 7 -4 0 
5 1 -3 0 
3 -2 4 0 
2 -1 2 0 
4 3 -6 0 
5 -3 6 0 
2 -2 2 0 
2 -6 6 0 
7 3 -4 0 
4 7 -7 0 
6 -6 7 0 
3 -6 1 0 
4 7 -4 0 
1 2 -3 0 
2 -6 7 0 
1 -7 6 0 
3 -1 2 0 
1 5 -2 0 
6 5 -2 0 
1 2 -7 0 
7 -5 2 0 
4 2 -3 0 
4 -2 7 0 
2 6 -6 0 
7 4 -6 0 
3 6 -1 0 
